(set-info :Origin "This instance was generated by: BanditFuzz-- an RL fuzzer for SMT solvers" )
(set-info :Author "Joe Scott, Fed Mora, Vijay Ganesh" )
(set-info :Contact "Joe Scott, joseph.scott@uwaterloo.ca")
; solvers/z3.sh
; 	time => 0.16364717483520508
; 	answer => err
; solvers/bitwuzla.sh
; 	time => 0.17258262634277344
; 	answer => err
; solvers/cvc4.sh
; 	time => 0.226884126663208
; 	answer => err
(set-logic QF_BV)
(declare-const bool_0 Bool)
(declare-const bool_1 Bool)
(declare-const bool_2 Bool)
(declare-const bool_3 Bool)
(declare-const bool_4 Bool)
(declare-const bv_0 (_ BitVec 8))
(declare-const bv_1 (_ BitVec 8))
(declare-const bv_2 (_ BitVec 8))
(declare-const bv_3 (_ BitVec 8))
(declare-const bv_4 (_ BitVec 8))
(assert (bvult (bvudiv (bvor bv_2 #x00000006 ) (bvand #x00000043  #x00000051 )) (bvnor (bvshl bv_0 bv_0) (bvsub bv_1 #x0000007d ))))
(assert (xor (bvsle (bvnand bv_0 bv_0) (bvsub bv_3 #x00000064 )) (=> (bvuge bv_3 #x000000d4 ) (bvult #x0000008e  bv_1))))
(assert (bvsge (bvor (bvurem #x00000030  #x000000da ) (bvxnor #x000000f6  bv_1)) (bvsub (bvshl bv_1 bv_2) (bvsub bv_1 bv_4))))
(assert (bvsge (bvadd (bvlshr #x00000026  #x00000074 ) (bvsrem #x00000083  bv_4)) (bvand (bvnor #x0000001b  #x0000003f ) (bvlshr #x0000003b  #x00000016 ))))
(assert (bvult (bvshl (bvsmod bv_4 #x00000042 ) (bvashr #x0000002a  #x0000004d )) (bvashr (bvudiv bv_3 bv_0) (bvsdiv bv_1 #x000000c0 ))))
(check-sat)
(exit)
